--- Job transport_problem.gms Start 04/13/20 16:31:24 28.2.0 r750fa45 WEX-WEI x86 64bit/MS Windows
--- GAMS Parameters defined
    Input C:\Users\Adeolu\Documents\GAMSStudio\workspace\transport_problem.gms
    PageSize 0
    ScrDir C:\Users\Adeolu\Documents\GAMSStudio\workspace\225a\
    SysDir C:\GAMS\win64\28.2\
    LogOption 3
    ErrMsg 1
    ErrorLog 99
    IDE 1
    LstTitleLeftAligned 1
GAMS 28.2.0   Copyright (C) 1987-2019 GAMS Development. All rights reserved
Licensee: GAMS Development Corporation, USA              G871201/0000CA-ANY
          Free Demo, +1 202-342-0180, support@gams.com, www.gams.com DC0000
--- Starting compilation
--- transport_problem.gms(43) 3 Mb
--- Starting execution: elapsed 0:00:00.006
--- transport_problem.gms(24) 4 Mb
--- Generating LP model transport
--- transport_problem.gms(42) 4 Mb
---   6 rows  7 columns  19 non-zeroes
--- Executing CPLEX: elapsed 0:00:00.187

IBM ILOG CPLEX   28.2.0 r750fa45 Released Aug 19, 2019 WEI x86 64bit/MS Window
Cplex 12.9.0.0

Reading data...
Starting Cplex...
Space for names approximately 0.00 Mb
Use option 'names no' to turn use of names off
CPXPARAM_Advance                                 0
CPXPARAM_Simplex_Display                         2
CPXPARAM_Threads                                 1
CPXPARAM_Parallel                                1
CPXPARAM_Simplex_Limits_Iterations               2000000000
CPXPARAM_TimeLimit                               1000
CPXPARAM_Tune_TimeLimit                          200
Tried aggregator 1 time.
LP Presolve eliminated 1 rows and 1 columns.
Reduced LP has 5 rows, 6 columns, and 12 nonzeros.
Presolve time = 0.02 sec. (0.00 ticks)

Iteration      Dual Objective            In Variable           Out Variable
     1              73.125000    x(seattle.new-york) demand(new-york) slack
     2             119.025000     x(seattle.chicago)  demand(chicago) slack
     3             153.675000    x(san-diego.topeka)   demand(topeka) slack
     4             153.675000  x(san-diego.new-york)  supply(seattle) slack
LP status(1): optimal
Cplex Time: 0.03sec (det. 0.01 ticks)

Optimal solution found.
Objective :         153.675000

--- Restarting execution
--- transport_problem.gms(42) 2 Mb
--- Reading solution for model transport
--- Executing after solve: elapsed 0:00:00.681
--- transport_problem.gms(43) 3 Mb
*** Status: Normal completion
--- Job transport_problem.gms Stop 04/13/20 16:31:25 elapsed 0:00:00.704
